
Gurobi 13.0.0 (mac64[arm]) logging started Sun Dec  7 08:30:50 2025

Set parameter LogFile to value "/Users/jjung404/PyProjects/qiga/data/steiner-opt/ES20FST/es20fst03_log.txt"
Set parameter OutputFlag to value 1
Gurobi Optimizer version 13.0.0 build v13.0.0rc1 (mac64[arm] - Darwin 24.6.0 24G325)

CPU model: Apple M3
Thread count: 8 physical cores, 8 logical processors, using up to 8 threads

Optimize a model with 99 rows, 78 columns and 239 nonzeros (Min)
Model fingerprint: 0x0e69a757
Model has 26 linear objective coefficients
Variable types: 52 continuous, 26 integer (26 binary)
Coefficient statistics:
  Matrix range     [1e+00, 2e+01]
  Objective range  [1e+05, 3e+06]
  Bounds range     [1e+00, 1e+00]
  RHS range        [1e+00, 2e+01]
Presolve removed 99 rows and 78 columns
Presolve time: 0.00s
Presolve: All rows and columns removed

Explored 0 nodes (0 simplex iterations) in 0.00 seconds (0.00 work units)
Thread count was 1 (of 8 available processors)

Solution count 1: 2.78474e+07 

Optimal solution found (tolerance 1.00e-04)
Best objective 2.784741700000e+07, best bound 2.784741700000e+07, gap 0.0000%
